
Gurobi 12.0.2 (win64) logging started Sun Jun  8 11:32:49 2025

Set parameter LogFile to value "C:\Ioana\_uni\honours\slp\algorithm\Main_files\results\others\prox_tubules_new_model\Task_005_Sample002_irr_gurobi.log"
Gurobi Optimizer version 12.0.2 build v12.0.2rc0 (win64 - Windows 11.0 (26100.2))

CPU model: Intel(R) Core(TM) Ultra 5 125H, instruction set [SSE2|AVX|AVX2]
Thread count: 14 physical cores, 18 logical processors, using up to 18 threads

Non-default parameters:
TimeLimit  2200

Optimize a model with 47226 rows, 34501 columns and 146688 nonzeros
Model fingerprint: 0xa4820357
Variable types: 17256 continuous, 17245 integer (17245 binary)
Coefficient statistics:
  Matrix range     [1e-04, 8e+04]
  Objective range  [1e-04, 9e-01]
  Bounds range     [1e+00, 1e+03]
  RHS range        [1e+00, 1e+00]
Presolve removed 30775 rows and 21548 columns
Presolve time: 0.34s
Presolved: 16451 rows, 12953 columns, 54679 nonzeros
Variable types: 6409 continuous, 6544 integer (6544 binary)

Root relaxation: objective 3.255562e-04, 698 iterations, 0.03 seconds (0.04 work units)

    Nodes    |    Current Node    |     Objective Bounds      |     Work
 Expl Unexpl |  Obj  Depth IntInf | Incumbent    BestBd   Gap | It/Node Time

     0     0    0.00033    0   13          -    0.00033      -     -    0s
H    0     0                       0.3177744    0.00033   100%     -    0s
H    0     0                       0.3158826    0.00033   100%     -    0s
     0     0    0.24444    0   16    0.31588    0.24444  22.6%     -    0s
     0     0    0.31399    0    1    0.31588    0.31399  0.60%     -    0s

Explored 1 nodes (855 simplex iterations) in 0.66 seconds (0.65 work units)
Thread count was 18 (of 18 available processors)

Solution count 2: 0.315883 0.317774 

Optimal solution found (tolerance 1.00e-04)
Best objective 3.158825804399e-01, best bound 3.158825804399e-01, gap 0.0000%
